; benchmark generated from python API
(set-info :status unknown)
(declare-fun cell_1_1 () Int)
(declare-fun cell_2_1 () Int)
(declare-fun cell_3_1 () Int)
(declare-fun cell_4_1 () Int)
(declare-fun cell_5_1 () Int)
(declare-fun cell_6_1 () Int)
(declare-fun cell_7_1 () Int)
(declare-fun cell_8_1 () Int)
(declare-fun cell_9_1 () Int)
(declare-fun cell_1_2 () Int)
(declare-fun cell_2_2 () Int)
(declare-fun cell_3_2 () Int)
(declare-fun cell_4_2 () Int)
(declare-fun cell_5_2 () Int)
(declare-fun cell_6_2 () Int)
(declare-fun cell_7_2 () Int)
(declare-fun cell_8_2 () Int)
(declare-fun cell_9_2 () Int)
(declare-fun cell_1_3 () Int)
(declare-fun cell_2_3 () Int)
(declare-fun cell_3_3 () Int)
(declare-fun cell_4_3 () Int)
(declare-fun cell_5_3 () Int)
(declare-fun cell_6_3 () Int)
(declare-fun cell_7_3 () Int)
(declare-fun cell_8_3 () Int)
(declare-fun cell_9_3 () Int)
(declare-fun cell_1_4 () Int)
(declare-fun cell_2_4 () Int)
(declare-fun cell_3_4 () Int)
(declare-fun cell_4_4 () Int)
(declare-fun cell_5_4 () Int)
(declare-fun cell_6_4 () Int)
(declare-fun cell_7_4 () Int)
(declare-fun cell_8_4 () Int)
(declare-fun cell_9_4 () Int)
(declare-fun cell_1_5 () Int)
(declare-fun cell_2_5 () Int)
(declare-fun cell_3_5 () Int)
(declare-fun cell_4_5 () Int)
(declare-fun cell_5_5 () Int)
(declare-fun cell_6_5 () Int)
(declare-fun cell_7_5 () Int)
(declare-fun cell_8_5 () Int)
(declare-fun cell_9_5 () Int)
(declare-fun cell_1_6 () Int)
(declare-fun cell_2_6 () Int)
(declare-fun cell_3_6 () Int)
(declare-fun cell_4_6 () Int)
(declare-fun cell_5_6 () Int)
(declare-fun cell_6_6 () Int)
(declare-fun cell_7_6 () Int)
(declare-fun cell_8_6 () Int)
(declare-fun cell_9_6 () Int)
(declare-fun cell_1_7 () Int)
(declare-fun cell_2_7 () Int)
(declare-fun cell_3_7 () Int)
(declare-fun cell_4_7 () Int)
(declare-fun cell_5_7 () Int)
(declare-fun cell_6_7 () Int)
(declare-fun cell_7_7 () Int)
(declare-fun cell_8_7 () Int)
(declare-fun cell_9_7 () Int)
(declare-fun cell_1_8 () Int)
(declare-fun cell_2_8 () Int)
(declare-fun cell_3_8 () Int)
(declare-fun cell_4_8 () Int)
(declare-fun cell_5_8 () Int)
(declare-fun cell_6_8 () Int)
(declare-fun cell_7_8 () Int)
(declare-fun cell_8_8 () Int)
(declare-fun cell_9_8 () Int)
(declare-fun cell_1_9 () Int)
(declare-fun cell_2_9 () Int)
(declare-fun cell_3_9 () Int)
(declare-fun cell_4_9 () Int)
(declare-fun cell_5_9 () Int)
(declare-fun cell_6_9 () Int)
(declare-fun cell_7_9 () Int)
(declare-fun cell_8_9 () Int)
(declare-fun cell_9_9 () Int)
(assert
 (= cell_1_1 5))
(assert
 (>= cell_1_1 1))
(assert
 (<= cell_1_1 9))
(assert
 (>= cell_2_1 1))
(assert
 (<= cell_2_1 9))
(assert
 (>= cell_3_1 1))
(assert
 (<= cell_3_1 9))
(assert
 (>= cell_4_1 1))
(assert
 (<= cell_4_1 9))
(assert
 (>= cell_5_1 1))
(assert
 (<= cell_5_1 9))
(assert
 (>= cell_6_1 1))
(assert
 (<= cell_6_1 9))
(assert
 (>= cell_7_1 1))
(assert
 (<= cell_7_1 9))
(assert
 (>= cell_8_1 1))
(assert
 (<= cell_8_1 9))
(assert
 (>= cell_9_1 1))
(assert
 (<= cell_9_1 9))
(assert
 (>= cell_1_2 1))
(assert
 (<= cell_1_2 9))
(assert
 (>= cell_2_2 1))
(assert
 (<= cell_2_2 9))
(assert
 (>= cell_3_2 1))
(assert
 (<= cell_3_2 9))
(assert
 (>= cell_4_2 1))
(assert
 (<= cell_4_2 9))
(assert
 (>= cell_5_2 1))
(assert
 (<= cell_5_2 9))
(assert
 (>= cell_6_2 1))
(assert
 (<= cell_6_2 9))
(assert
 (>= cell_7_2 1))
(assert
 (<= cell_7_2 9))
(assert
 (>= cell_8_2 1))
(assert
 (<= cell_8_2 9))
(assert
 (>= cell_9_2 1))
(assert
 (<= cell_9_2 9))
(assert
 (>= cell_1_3 1))
(assert
 (<= cell_1_3 9))
(assert
 (>= cell_2_3 1))
(assert
 (<= cell_2_3 9))
(assert
 (>= cell_3_3 1))
(assert
 (<= cell_3_3 9))
(assert
 (>= cell_4_3 1))
(assert
 (<= cell_4_3 9))
(assert
 (>= cell_5_3 1))
(assert
 (<= cell_5_3 9))
(assert
 (>= cell_6_3 1))
(assert
 (<= cell_6_3 9))
(assert
 (>= cell_7_3 1))
(assert
 (<= cell_7_3 9))
(assert
 (>= cell_8_3 1))
(assert
 (<= cell_8_3 9))
(assert
 (>= cell_9_3 1))
(assert
 (<= cell_9_3 9))
(assert
 (>= cell_1_4 1))
(assert
 (<= cell_1_4 9))
(assert
 (>= cell_2_4 1))
(assert
 (<= cell_2_4 9))
(assert
 (>= cell_3_4 1))
(assert
 (<= cell_3_4 9))
(assert
 (>= cell_4_4 1))
(assert
 (<= cell_4_4 9))
(assert
 (>= cell_5_4 1))
(assert
 (<= cell_5_4 9))
(assert
 (>= cell_6_4 1))
(assert
 (<= cell_6_4 9))
(assert
 (>= cell_7_4 1))
(assert
 (<= cell_7_4 9))
(assert
 (>= cell_8_4 1))
(assert
 (<= cell_8_4 9))
(assert
 (>= cell_9_4 1))
(assert
 (<= cell_9_4 9))
(assert
 (>= cell_1_5 1))
(assert
 (<= cell_1_5 9))
(assert
 (>= cell_2_5 1))
(assert
 (<= cell_2_5 9))
(assert
 (>= cell_3_5 1))
(assert
 (<= cell_3_5 9))
(assert
 (>= cell_4_5 1))
(assert
 (<= cell_4_5 9))
(assert
 (>= cell_5_5 1))
(assert
 (<= cell_5_5 9))
(assert
 (>= cell_6_5 1))
(assert
 (<= cell_6_5 9))
(assert
 (>= cell_7_5 1))
(assert
 (<= cell_7_5 9))
(assert
 (>= cell_8_5 1))
(assert
 (<= cell_8_5 9))
(assert
 (>= cell_9_5 1))
(assert
 (<= cell_9_5 9))
(assert
 (>= cell_1_6 1))
(assert
 (<= cell_1_6 9))
(assert
 (>= cell_2_6 1))
(assert
 (<= cell_2_6 9))
(assert
 (>= cell_3_6 1))
(assert
 (<= cell_3_6 9))
(assert
 (>= cell_4_6 1))
(assert
 (<= cell_4_6 9))
(assert
 (>= cell_5_6 1))
(assert
 (<= cell_5_6 9))
(assert
 (>= cell_6_6 1))
(assert
 (<= cell_6_6 9))
(assert
 (>= cell_7_6 1))
(assert
 (<= cell_7_6 9))
(assert
 (>= cell_8_6 1))
(assert
 (<= cell_8_6 9))
(assert
 (>= cell_9_6 1))
(assert
 (<= cell_9_6 9))
(assert
 (>= cell_1_7 1))
(assert
 (<= cell_1_7 9))
(assert
 (>= cell_2_7 1))
(assert
 (<= cell_2_7 9))
(assert
 (>= cell_3_7 1))
(assert
 (<= cell_3_7 9))
(assert
 (>= cell_4_7 1))
(assert
 (<= cell_4_7 9))
(assert
 (>= cell_5_7 1))
(assert
 (<= cell_5_7 9))
(assert
 (>= cell_6_7 1))
(assert
 (<= cell_6_7 9))
(assert
 (>= cell_7_7 1))
(assert
 (<= cell_7_7 9))
(assert
 (>= cell_8_7 1))
(assert
 (<= cell_8_7 9))
(assert
 (>= cell_9_7 1))
(assert
 (<= cell_9_7 9))
(assert
 (>= cell_1_8 1))
(assert
 (<= cell_1_8 9))
(assert
 (>= cell_2_8 1))
(assert
 (<= cell_2_8 9))
(assert
 (>= cell_3_8 1))
(assert
 (<= cell_3_8 9))
(assert
 (>= cell_4_8 1))
(assert
 (<= cell_4_8 9))
(assert
 (>= cell_5_8 1))
(assert
 (<= cell_5_8 9))
(assert
 (>= cell_6_8 1))
(assert
 (<= cell_6_8 9))
(assert
 (>= cell_7_8 1))
(assert
 (<= cell_7_8 9))
(assert
 (>= cell_8_8 1))
(assert
 (<= cell_8_8 9))
(assert
 (>= cell_9_8 1))
(assert
 (<= cell_9_8 9))
(assert
 (>= cell_1_9 1))
(assert
 (<= cell_1_9 9))
(assert
 (>= cell_2_9 1))
(assert
 (<= cell_2_9 9))
(assert
 (>= cell_3_9 1))
(assert
 (<= cell_3_9 9))
(assert
 (>= cell_4_9 1))
(assert
 (<= cell_4_9 9))
(assert
 (>= cell_5_9 1))
(assert
 (<= cell_5_9 9))
(assert
 (>= cell_6_9 1))
(assert
 (<= cell_6_9 9))
(assert
 (>= cell_7_9 1))
(assert
 (<= cell_7_9 9))
(assert
 (>= cell_8_9 1))
(assert
 (<= cell_8_9 9))
(assert
 (>= cell_9_9 1))
(assert
 (<= cell_9_9 9))
(assert
 (and (distinct cell_1_1 cell_1_2 cell_1_3 cell_1_4 cell_1_5 cell_1_6 cell_1_7 cell_1_8 cell_1_9) true))
(assert
 (and (distinct cell_2_1 cell_2_2 cell_2_3 cell_2_4 cell_2_5 cell_2_6 cell_2_7 cell_2_8 cell_2_9) true))
(assert
 (and (distinct cell_3_1 cell_3_2 cell_3_3 cell_3_4 cell_3_5 cell_3_6 cell_3_7 cell_3_8 cell_3_9) true))
(assert
 (and (distinct cell_4_1 cell_4_2 cell_4_3 cell_4_4 cell_4_5 cell_4_6 cell_4_7 cell_4_8 cell_4_9) true))
(assert
 (and (distinct cell_5_1 cell_5_2 cell_5_3 cell_5_4 cell_5_5 cell_5_6 cell_5_7 cell_5_8 cell_5_9) true))
(assert
 (and (distinct cell_6_1 cell_6_2 cell_6_3 cell_6_4 cell_6_5 cell_6_6 cell_6_7 cell_6_8 cell_6_9) true))
(assert
 (and (distinct cell_7_1 cell_7_2 cell_7_3 cell_7_4 cell_7_5 cell_7_6 cell_7_7 cell_7_8 cell_7_9) true))
(assert
 (and (distinct cell_8_1 cell_8_2 cell_8_3 cell_8_4 cell_8_5 cell_8_6 cell_8_7 cell_8_8 cell_8_9) true))
(assert
 (and (distinct cell_9_1 cell_9_2 cell_9_3 cell_9_4 cell_9_5 cell_9_6 cell_9_7 cell_9_8 cell_9_9) true))
(assert
 (and (distinct cell_1_1 cell_2_1 cell_3_1 cell_4_1 cell_5_1 cell_6_1 cell_7_1 cell_8_1 cell_9_1) true))
(assert
 (and (distinct cell_1_2 cell_2_2 cell_3_2 cell_4_2 cell_5_2 cell_6_2 cell_7_2 cell_8_2 cell_9_2) true))
(assert
 (and (distinct cell_1_3 cell_2_3 cell_3_3 cell_4_3 cell_5_3 cell_6_3 cell_7_3 cell_8_3 cell_9_3) true))
(assert
 (and (distinct cell_1_4 cell_2_4 cell_3_4 cell_4_4 cell_5_4 cell_6_4 cell_7_4 cell_8_4 cell_9_4) true))
(assert
 (and (distinct cell_1_5 cell_2_5 cell_3_5 cell_4_5 cell_5_5 cell_6_5 cell_7_5 cell_8_5 cell_9_5) true))
(assert
 (and (distinct cell_1_6 cell_2_6 cell_3_6 cell_4_6 cell_5_6 cell_6_6 cell_7_6 cell_8_6 cell_9_6) true))
(assert
 (and (distinct cell_1_7 cell_2_7 cell_3_7 cell_4_7 cell_5_7 cell_6_7 cell_7_7 cell_8_7 cell_9_7) true))
(assert
 (and (distinct cell_1_8 cell_2_8 cell_3_8 cell_4_8 cell_5_8 cell_6_8 cell_7_8 cell_8_8 cell_9_8) true))
(assert
 (and (distinct cell_1_9 cell_2_9 cell_3_9 cell_4_9 cell_5_9 cell_6_9 cell_7_9 cell_8_9 cell_9_9) true))
(assert
 (and (distinct cell_1_1 cell_1_2 cell_1_3 cell_2_1 cell_2_2 cell_2_3 cell_3_1 cell_3_2 cell_3_3) true))
(assert
 (and (distinct cell_1_4 cell_1_5 cell_1_6 cell_2_4 cell_2_5 cell_2_6 cell_3_4 cell_3_5 cell_3_6) true))
(assert
 (and (distinct cell_1_7 cell_1_8 cell_1_9 cell_2_7 cell_2_8 cell_2_9 cell_3_7 cell_3_8 cell_3_9) true))
(assert
 (and (distinct cell_4_1 cell_4_2 cell_4_3 cell_5_1 cell_5_2 cell_5_3 cell_6_1 cell_6_2 cell_6_3) true))
(assert
 (and (distinct cell_4_4 cell_4_5 cell_4_6 cell_5_4 cell_5_5 cell_5_6 cell_6_4 cell_6_5 cell_6_6) true))
(assert
 (and (distinct cell_4_7 cell_4_8 cell_4_9 cell_5_7 cell_5_8 cell_5_9 cell_6_7 cell_6_8 cell_6_9) true))
(assert
 (and (distinct cell_7_1 cell_7_2 cell_7_3 cell_8_1 cell_8_2 cell_8_3 cell_9_1 cell_9_2 cell_9_3) true))
(assert
 (and (distinct cell_7_4 cell_7_5 cell_7_6 cell_8_4 cell_8_5 cell_8_6 cell_9_4 cell_9_5 cell_9_6) true))
(assert
 (and (distinct cell_7_7 cell_7_8 cell_7_9 cell_8_7 cell_8_8 cell_8_9 cell_9_7 cell_9_8 cell_9_9) true))
(assert
 (let (($x1755 (and (distinct cell_5_9 cell_6_8 cell_7_7 cell_8_6) true)))
 (let (($x1634 (and (distinct cell_2_9 cell_3_8 cell_4_7 cell_5_6 cell_6_5 cell_7_4 cell_8_3 cell_9_2) true)))
 (let (($x855 (and (distinct cell_1_8 cell_2_7 cell_3_6 cell_4_5 cell_5_4 cell_6_3 cell_7_2 cell_8_1) true)))
 (let (($x568 (and (distinct cell_1_5 cell_2_4 cell_3_3 cell_4_2) true)))
 (let (($x1859 (and (distinct cell_5_1 cell_6_2 cell_7_3 cell_8_4) true)))
 (let (($x1943 (and (distinct cell_2_1 cell_3_2 cell_4_3 cell_5_4 cell_6_5 cell_7_6 cell_8_7 cell_9_8) true)))
 (let (($x569 (and (distinct cell_1_2 cell_2_3 cell_3_4 cell_4_5 cell_5_6 cell_6_7 cell_7_8 cell_8_9) true)))
 (let (($x942 (and (distinct cell_1_5 cell_2_6 cell_3_7 cell_4_8) true)))
 (and $x942 $x569 $x1943 $x1859 $x568 $x855 $x1634 $x1755))))))))))
(assert
 (= cell_1_2 4))
(check-sat)
